Gurobi Optimizer version 9.1.2 build v9.1.2rc0 (linux64)
Thread count: 36 physical cores, 72 logical processors, using up to 32 threads
Optimize a model with 12 rows, 57 columns and 590 nonzeros
Model fingerprint: 0xf32eec78
Model has 47 quadratic constraints
Coefficient statistics:
  Matrix range     [2e-05, 3e+00]
  QMatrix range    [1e+00, 1e+00]
  QLMatrix range   [1e+00, 1e+00]
  Objective range  [8e-03, 7e-01]
  Bounds range     [1e+00, 1e+00]
  RHS range        [1e+00, 1e+00]
Presolve removed 9 rows and 0 columns

Continuous model is non-convex -- solving as a MIP.

Presolve removed 9 rows and 0 columns
Presolve time: 0.00s
Presolved: 189 rows, 57 columns, 443 nonzeros
Presolved model has 47 bilinear constraint(s)
Variable types: 57 continuous, 0 integer (0 binary)

Root relaxation: objective -1.743721e+00, 44 iterations, 0.00 seconds

    Nodes    |    Current Node    |     Objective Bounds      |     Work
 Expl Unexpl |  Obj  Depth IntInf | Incumbent    BestBd   Gap | It/Node Time

     0     0   -1.74372    0   38          -   -1.74372      -     -    0s
H    0     0                       0.6147548   -1.74372   384%     -    0s
     0     0   -1.64739    0    1    0.61475   -1.64739   368%     -    0s
H    0     0                      -1.6450460   -1.64739  0.14%     -    0s
     0     0     cutoff    0        -1.64505   -1.64505  0.00%     -    0s

Cutting planes:
  RLT: 25
  BQP: 3

Explored 1 nodes (76 simplex iterations) in 0.01 seconds
Thread count was 32 (of 72 available processors)

Solution count 2: -1.64505 0.614755 
No other solutions better than -1.64505

Optimal solution found (tolerance 1.00e-04)
Best objective -1.645045978473e+00, best bound -1.645045978473e+00, gap 0.0000%

User-callback calls 77, time in user-callback 0.00 sec
Gurobi Optimizer version 9.1.2 build v9.1.2rc0 (linux64)
Thread count: 36 physical cores, 72 logical processors, using up to 32 threads
Optimize a model with 24 rows, 120 columns and 2480 nonzeros
Model fingerprint: 0xc72c6883
Model has 100 quadratic constraints
Coefficient statistics:
  Matrix range     [8e-06, 4e+00]
  QMatrix range    [1e+00, 1e+00]
  QLMatrix range   [1e+00, 1e+00]
  Objective range  [7e-03, 1e+00]
  Bounds range     [1e+00, 1e+00]
  RHS range        [1e+00, 1e+00]
Presolve removed 17 rows and 0 columns

Continuous model is non-convex -- solving as a MIP.

Presolve removed 17 rows and 0 columns
Presolve time: 0.00s
Presolved: 407 rows, 120 columns, 1232 nonzeros
Presolved model has 100 bilinear constraint(s)
Variable types: 120 continuous, 0 integer (0 binary)

Root relaxation: objective -1.010184e+01, 132 iterations, 0.00 seconds

    Nodes    |    Current Node    |     Objective Bounds      |     Work
 Expl Unexpl |  Obj  Depth IntInf | Incumbent    BestBd   Gap | It/Node Time

     0     0  -10.10184    0  100          -  -10.10184      -     -    0s
H    0     0                       0.7608385  -10.10184  1428%     -    0s
     0     0   -7.38670    0   82    0.76084   -7.38670  1071%     -    0s
H    0     0                      -0.2530498   -7.38670  2819%     -    0s
     0     0   -6.71762    0   90   -0.25305   -6.71762  2555%     -    0s
H    0     0                      -0.5345081   -6.71762  1157%     -    0s
     0     0   -6.57903    0  100   -0.53451   -6.57903  1131%     -    0s
     0     0   -6.24004    0  100   -0.53451   -6.24004  1067%     -    0s
     0     0   -6.15234    0  100   -0.53451   -6.15234  1051%     -    0s
     0     0   -6.01446    0  100   -0.53451   -6.01446  1025%     -    0s
     0     0   -6.01088    0  100   -0.53451   -6.01088  1025%     -    0s
     0     0   -5.96710    0  100   -0.53451   -5.96710  1016%     -    0s
     0     0   -5.95063    0   91   -0.53451   -5.95063  1013%     -    0s
     0     0   -5.94148    0  100   -0.53451   -5.94148  1012%     -    0s
H    0     0                      -0.6655746   -5.94148   793%     -    0s
     0     0   -5.94125    0  100   -0.66557   -5.94125   793%     -    0s
     0     0   -5.93907    0  100   -0.66557   -5.93907   792%     -    0s
     0     0   -5.93884    0  100   -0.66557   -5.93884   792%     -    0s
     0     0   -5.93883    0  100   -0.66557   -5.93883   792%     -    0s
H    0     0                      -1.1639593   -5.93883   410%     -    0s
H    0     0                      -3.4969261   -5.93883  69.8%     -    0s
     0     2   -5.93883    0  100   -3.49693   -5.93883  69.8%     -    0s
*  904   918              36      -4.5765484   -5.25433  14.8%  30.9    0s
* 1564  1101              22      -4.5773474   -5.08972  11.2%  26.1    0s
* 1686  1101              23      -4.5788423   -5.08972  11.2%  25.6    0s
* 1687  1101              23      -4.5789149   -5.08972  11.2%  25.5    0s
* 1719  1101              26      -4.6806320   -5.08972  8.74%  25.3    0s
* 1985  1300              29      -4.7426013   -5.08897  7.30%  23.8    0s
* 2005  1300              28      -4.8625734   -5.08897  4.66%  23.7    0s
* 2006  1300              28      -4.8625738   -5.08897  4.66%  23.7    0s
* 2234  1134              26      -4.8683077   -5.08897  4.53%  22.3    0s
* 2235  1134              26      -4.8694187   -5.08897  4.51%  22.3    0s
* 2673  1414              26      -4.8694790   -4.96819  2.03%  19.6    0s
* 2683  1414              29      -4.8734963   -4.96819  1.94%  19.5    0s
* 2722  1414              28      -4.8941942   -4.96376  1.42%  19.4    0s
* 2739  1414              35      -4.9013321   -4.96376  1.27%  19.3    0s
* 2753  1414              23      -4.9122023   -4.96376  1.05%  19.3    0s
* 2992  1414              30      -4.9297941   -4.96376  0.69%  18.5    0s
* 3238  1219              30      -4.9393618   -4.95618  0.34%  17.5    0s
* 3458  1219              22      -4.9427715   -4.94821  0.11%  16.7    0s
* 3892   525              22      -4.9467426   -4.94821  0.03%  15.1    0s
* 3896   525              23      -4.9467452   -4.94821  0.03%  15.1    0s
* 3897   525              23      -4.9467473   -4.94821  0.03%  15.1    0s
* 3898   525              23      -4.9467676   -4.94821  0.03%  15.1    0s

Cutting planes:
  RLT: 89
  BQP: 16
  PSD: 10

Explored 5205 nodes (60031 simplex iterations) in 0.88 seconds
Thread count was 32 (of 72 available processors)

Solution count 10: -4.94677 -4.94675 -4.94674 ... -4.8735
No other solutions better than -4.94677

Optimal solution found (tolerance 1.00e-04)
Best objective -4.946767614092e+00, best bound -4.946767614092e+00, gap 0.0000%

User-callback calls 10747, time in user-callback 0.00 sec



objective value: -4.946767614092467
objective bound: -4.946767614092467
x_opt: [0.0, 1.0, 1.0, 1.0, 1.0, 0.0, 0.0, 0.0, 0.2684420927725157, 1.0, 0.0, 0.26884082668887993, 1.0, 0.9154003596645907, 1.0, 0.0, 0.0, 0.0, 0.0, 0.5430885792994598]
GUROBI solution time: 0.8775041103363037




